(set-logic ALL)
(set-option :produce-models true)
(define-fun-rec toLower ((x String) (y String)) Bool 	(or (and (= x "") (= y "")) 		(and (not (= x "")) (not (= y "")) 			(let ((x_head (str.at x 0)) 				(y_head (str.at y 0)) 				(x_tail (str.substr x 1 (- (str.len x) 1))) 				(y_tail (str.substr y 1 (- (str.len y) 1)))) 			(and (= (str.to_code y_head) 				(ite (and (<= 65 (str.to_code x_head)) (<= (str.to_code x_head) 90)) 					(+ (str.to_code x_head) 32) 					(str.to_code x_head))) 				(toLower x_tail y_tail))))))
(declare-fun sym601 () String)
(declare-fun sym403 () String)
(declare-fun sym205 () String)
(declare-fun sym645 () String)
(declare-fun sym449 () String)
(declare-fun sym329 () String)
(declare-fun sym529 () String)
(declare-fun sym681 () String)
(declare-fun sym485 () String)
(declare-fun sym563 () String)
(declare-fun sym245 () String)
(declare-fun sym368 () String)
(declare-fun sym721 () String)
(declare-fun sym160 () String)
(declare-fun sym284 () String)
(declare-fun sym459 () String)
(declare-fun sym735 () String)
(declare-fun sym539 () String)
(declare-fun sym419 () String)
(declare-fun sym175 () String)
(declare-fun sym495 () String)
(declare-fun sym255 () String)
(declare-fun sym135 () String)
(declare-fun sym577 () String)
(declare-fun sym655 () String)
(declare-fun sym215 () String)
(declare-fun sym611 () String)
(declare-fun sym294 () String)
(declare-fun sym691 () String)
(declare-fun sym20 () String)
(declare-fun sym745 () String)
(declare-fun sym701 () String)
(declare-fun sym549 () String)
(declare-fun sym505 () String)
(declare-fun sym429 () String)
(declare-fun sym309 () String)
(declare-fun sym343 () String)
(declare-fun sym587 () String)
(declare-fun sym269 () String)
(declare-fun sym225 () String)
(declare-fun sym621 () String)
(declare-fun sym665 () String)
(declare-fun sym185 () String)
(declare-fun sym383 () String)
(declare-fun sym711 () String)
(declare-fun sym755 () String)
(declare-fun sym635 () String)
(declare-fun sym515 () String)
(declare-fun sym439 () String)
(declare-fun sym319 () String)
(declare-fun sym475 () String)
(declare-fun sym113 () String)
(declare-fun sym235 () String)
(declare-fun sym358 () String)
(declare-fun sym150 () String)
(declare-fun sym393 () String)
(declare-fun sym195 () String)
(define-fun Alphabet () RegLan 
	(re.* (re.union (str.to_re "A") (str.to_re "B") (str.to_re "C") (str.to_re "D") (str.to_re "E") (str.to_re "F") (str.to_re "G") (str.to_re "H") (str.to_re "I") (str.to_re "J") (str.to_re "K") (str.to_re "L") (str.to_re "M") (str.to_re "N") (str.to_re "O") (str.to_re "P") (str.to_re "Q") (str.to_re "R") (str.to_re "S") (str.to_re "T") (str.to_re "U") (str.to_re "V") (str.to_re "W") (str.to_re "X") (str.to_re "Y") (str.to_re "Z") (str.to_re "a") (str.to_re "b") (str.to_re "c") (str.to_re "d") (str.to_re "e") (str.to_re "f") (str.to_re "g") (str.to_re "h") (str.to_re "i") (str.to_re "j") (str.to_re "k") (str.to_re "l") (str.to_re "m") (str.to_re "n") (str.to_re "o") (str.to_re "p") (str.to_re "q") (str.to_re "r") (str.to_re "s") (str.to_re "t") (str.to_re "u") (str.to_re "v") (str.to_re "w") (str.to_re "x") (str.to_re "y") (str.to_re "z") ))
)
(declare-fun L80  () String)
(assert (toLower sym459  L80 ))
(declare-fun L84  () String)
(assert (toLower sym529  L84 ))
(declare-fun L2  () String)
(assert (toLower sym485  L2 ))
(declare-fun L72  () String)
(assert (toLower sym515  L72 ))
(declare-fun L60  () String)
(assert (toLower sym655  L60 ))
(declare-fun L92  () String)
(assert (toLower sym215  L92 ))
(declare-fun L88  () String)
(assert (toLower sym113  L88 ))
(declare-fun L6  () String)
(assert (toLower sym185  L6 ))
(declare-fun L76  () String)
(assert (toLower sym319  L76 ))
(declare-fun L32  () String)
(assert (toLower "type"  L32 ))
(declare-fun L64  () String)
(assert (toLower sym635  L64 ))
(declare-fun L20  () String)
(assert (toLower sym269  L20 ))
(declare-fun L96  () String)
(assert (toLower sym563  L96 ))
(declare-fun L68  () String)
(assert (toLower sym429  L68 ))
(declare-fun L24  () String)
(assert (toLower sym539  L24 ))
(declare-fun L12  () String)
(assert (toLower sym160  L12 ))
(declare-fun L28  () String)
(assert (toLower sym577  L28 ))
(declare-fun L16  () String)
(assert (toLower sym245  L16 ))
(declare-fun L112  () String)
(assert (toLower sym701  L112 ))
(declare-fun L100  () String)
(assert (toLower sym745  L100 ))
(declare-fun L1  () String)
(assert (toLower "name"  L1 ))
(declare-fun L33  () String)
(assert (toLower sym755  L33 ))
(declare-fun L108  () String)
(assert (toLower sym175  L108 ))
(declare-fun L53  () String)
(assert (toLower sym721  L53 ))
(declare-fun L41  () String)
(assert (toLower sym393  L41 ))
(declare-fun L37  () String)
(assert (toLower sym329  L37 ))
(declare-fun L104  () String)
(assert (toLower sym495  L104 ))
(declare-fun L9  () String)
(assert (toLower "length"  L9 ))
(declare-fun L57  () String)
(assert (toLower sym645  L57 ))
(declare-fun L89  () String)
(assert (toLower "database"  L89 ))
(declare-fun L45  () String)
(assert (toLower sym681  L45 ))
(declare-fun L49  () String)
(assert (toLower sym449  L49 ))
(declare-fun L90  () String)
(assert (toLower sym284  L90 ))
(declare-fun L0  () String)
(assert (toLower sym475  L0 ))
(declare-fun L62  () String)
(assert (toLower sym505  L62 ))
(declare-fun L94  () String)
(assert (toLower sym255  L94 ))
(declare-fun L82  () String)
(assert (toLower sym368  L82 ))
(declare-fun L4  () String)
(assert (toLower sym235  L4 ))
(declare-fun L70  () String)
(assert (toLower sym309  L70 ))
(declare-fun L66  () String)
(assert (toLower sym225  L66 ))
(declare-fun L22  () String)
(assert (toLower sym135  L22 ))
(declare-fun L98  () String)
(assert (toLower sym665  L98 ))
(declare-fun L54  () String)
(assert (toLower "option"  L54 ))
(declare-fun L10  () String)
(assert (toLower sym601  L10 ))
(declare-fun L86  () String)
(assert (toLower sym195  L86 ))
(declare-fun L8  () String)
(assert (toLower sym711  L8 ))
(declare-fun L74  () String)
(assert (toLower sym621  L74 ))
(declare-fun L30  () String)
(assert (toLower sym20  L30 ))
(declare-fun L26  () String)
(assert (toLower sym549  L26 ))
(declare-fun L14  () String)
(assert (toLower sym587  L14 ))
(declare-fun L78  () String)
(assert (toLower sym358  L78 ))
(declare-fun L18  () String)
(assert (toLower sym735  L18 ))
(declare-fun L102  () String)
(assert (toLower sym691  L102 ))
(declare-fun L51  () String)
(assert (toLower sym343  L51 ))
(declare-fun L110  () String)
(assert (toLower sym611  L110 ))
(declare-fun L3  () String)
(assert (toLower "description"  L3 ))
(declare-fun L55  () String)
(assert (toLower sym383  L55 ))
(declare-fun L43  () String)
(assert (toLower sym439  L43 ))
(declare-fun L31  () String)
(assert (toLower sym403  L31 ))
(declare-fun L47  () String)
(assert (toLower sym294  L47 ))
(declare-fun L35  () String)
(assert (toLower sym150  L35 ))
(declare-fun L106  () String)
(assert (toLower sym419  L106 ))
(declare-fun L67  () String)
(assert (toLower "table"  L67 ))
(declare-fun L39  () String)
(assert (toLower sym205  L39 ))
(declare-fun L27  () String)
(assert (toLower "field"  L27 ))

(assert (str.in_re sym195 Alphabet))
(assert (str.in_re sym393 Alphabet))
(assert (str.in_re sym150 Alphabet))
(assert (str.in_re sym358 Alphabet))
(assert (str.in_re sym235 Alphabet))
(assert (str.in_re sym113 Alphabet))
(assert (str.in_re sym475 Alphabet))
(assert (str.in_re sym319 Alphabet))
(assert (str.in_re sym439 Alphabet))
(assert (str.in_re sym515 Alphabet))
(assert (str.in_re sym635 Alphabet))
(assert (str.in_re sym755 Alphabet))
(assert (str.in_re sym711 Alphabet))
(assert (str.in_re sym383 Alphabet))
(assert (str.in_re sym185 Alphabet))
(assert (str.in_re sym665 Alphabet))
(assert (str.in_re sym621 Alphabet))
(assert (str.in_re sym225 Alphabet))
(assert (str.in_re sym269 Alphabet))
(assert (str.in_re sym587 Alphabet))
(assert (str.in_re sym343 Alphabet))
(assert (str.in_re sym309 Alphabet))
(assert (str.in_re sym429 Alphabet))
(assert (str.in_re sym505 Alphabet))
(assert (str.in_re sym549 Alphabet))
(assert (str.in_re sym701 Alphabet))
(assert (str.in_re sym745 Alphabet))
(assert (str.in_re sym20 Alphabet))
(assert (str.in_re sym691 Alphabet))
(assert (str.in_re sym294 Alphabet))
(assert (str.in_re sym611 Alphabet))
(assert (str.in_re sym215 Alphabet))
(assert (str.in_re sym655 Alphabet))
(assert (str.in_re sym577 Alphabet))
(assert (str.in_re sym135 Alphabet))
(assert (str.in_re sym255 Alphabet))
(assert (str.in_re sym495 Alphabet))
(assert (str.in_re sym175 Alphabet))
(assert (str.in_re sym419 Alphabet))
(assert (str.in_re sym539 Alphabet))
(assert (str.in_re sym735 Alphabet))
(assert (str.in_re sym459 Alphabet))
(assert (str.in_re sym284 Alphabet))
(assert (str.in_re sym160 Alphabet))
(assert (str.in_re sym721 Alphabet))
(assert (str.in_re sym368 Alphabet))
(assert (str.in_re sym245 Alphabet))
(assert (str.in_re sym563 Alphabet))
(assert (str.in_re sym485 Alphabet))
(assert (str.in_re sym681 Alphabet))
(assert (str.in_re sym529 Alphabet))
(assert (str.in_re sym329 Alphabet))
(assert (str.in_re sym449 Alphabet))
(assert (str.in_re sym645 Alphabet))
(assert (str.in_re sym205 Alphabet))
(assert (str.in_re sym403 Alphabet))
(assert (str.in_re sym601 Alphabet))
(assert (not (= L0 L1 )))
(assert (not (= L2 L3 )))
(assert (not (= L4 L1 )))
(assert (not (= L6 L3 )))
(assert (not (= L8 L9 )))
(assert (not (= L10 L1 )))
(assert (= L12 L3 ))
(assert (= L14 L3 ))
(assert (not (= L16 L3 )))
(assert (not (= L18 L1 )))
(assert (= L20 L1 ))
(assert (= L22 L1 ))
(assert (not (= L24 L3 )))
(assert (= L26 L27 ))
(assert (not (= L28 L1 )))
(assert (not (= L30 "sql" )))
(assert (= L31 L32 ))
(assert (not (= L33 L27 )))
(assert (not (= L35 L1 )))
(assert (= L37 L27 ))
(assert (not (= L39 L1 )))
(assert (not (= L41 L3 )))
(assert (not (= L43 L32 )))
(assert (not (= L45 L1 )))
(assert (= L47 L3 ))
(assert (not (= L49 L9 )))
(assert (= L51 L1 ))
(assert (= L53 L54 ))
(assert (not (= L55 L1 )))
(assert (not (= L57 L3 )))
(assert (= L30 "html" ))
(assert (not (= L60 L32 )))
(assert (not (= L62 L9 )))
(assert (not (= L64 L1 )))
(assert (not (= L66 L67 )))
(assert (not (= L68 L3 )))
(assert (not (= L70 L1 )))
(assert (= L72 L54 ))
(assert (= L74 L32 ))
(assert (not (= L76 L3 )))
(assert (not (= L78 L1 )))
(assert (= L80 L54 ))
(assert (= L82 L3 ))
(assert (not (= L84 L1 )))
(assert (not (= L86 L67 )))
(assert (= L88 L89 ))
(assert (not (= L90 L1 )))
(assert (not (= L92 L3 )))
(assert (= L94 L67 ))
(assert (= L96 L1 ))
(assert (= L98 L9 ))
(assert (not (= L100 L3 )))
(assert (not (= L102 L3 )))
(assert (not (= L104 L32 )))
(assert (not (= L106 L1 )))
(assert (not (= L108 L1 )))
(assert (not (= L110 L3 )))
(assert (not (= L112 L32 )))
(check-sat)
(get-model)
(exit)
